r = [
0,7,10,1,4,2,8,13,10,11,11,0
];
p = [
0,25,5,12,8,30,20,19,14,6,18,0
];
e = [
0,16,9,12,1,8,5,2,4,19,3,0
];
d = [
0,114,198,115,108,149,85,184,188,132,133,203
];
d_bar = [
0,137,203,126,115,176,103,201,201,137,149,203
];
w = [
0,0.695652174,1.8,1.090909091,0.142857143,0.296296296,0.277777778,0.117647059,0.307692308,3.8,0.1875,0
];
